; benchmark generated from python API
(set-info :status unknown)
(declare-fun strlen_85_64 () (_ BitVec 64))
(declare-fun args_1_8 () (_ BitVec 8))
(declare-fun strlen_83_64 () (_ BitVec 64))
(declare-fun strncmp_ret_84_32 () (_ BitVec 32))
(declare-fun strncmp_ret_86_32 () (_ BitVec 32))
(declare-fun filesize_file_0_/proc/self/loginuid_88_64 () (_ BitVec 64))
(declare-fun syscall_stub_ioctl_94_32 () (_ BitVec 32))
(declare-fun syscall_stub_newfstatat_119_64 () (_ BitVec 64))
(declare-fun syscall_stub_readlink_158_64 () (_ BitVec 64))
(declare-fun strlen_842_64 () (_ BitVec 64))
(declare-fun mem_7fffffffffef420_168_64 () (_ BitVec 64))
(declare-fun syscall_stub_newfstatat_187_64 () (_ BitVec 64))
(declare-fun mem_7fffffffffef038_272_64 () (_ BitVec 64))
(declare-fun mem_7fffffffffeefa8_273_64 () (_ BitVec 64))
(declare-fun mem_7fffffffffeefa0_293_64 () (_ BitVec 64))
(declare-fun mem_7fffffffffef030_294_64 () (_ BitVec 64))
(declare-fun mem_7fffffffffef048_341_32 () (_ BitVec 32))
(declare-fun mem_7fffffffffeefc8_390_64 () (_ BitVec 64))
(declare-fun mem_7fffffffffef058_391_64 () (_ BitVec 64))
(declare-fun access_2116_32 () (_ BitVec 32))
(declare-fun access_3240_32 () (_ BitVec 32))
(declare-fun strlen_8496_64 () (_ BitVec 64))
(declare-fun mem_2c_8495_264 () (_ BitVec 264))
(assert
 (let ((?x751 (bvadd (_ bv576460752303357826 64) strlen_85_64)))
 (let (($x69 (= (_ bv0 8) args_1_8)))
 (let ((?x46 (ite $x69 (_ bv576460752303357826 64) (_ bv576460752303357827 64))))
 (= ?x46 ?x751)))))
(assert
 (let ((?x101 (bvadd (_ bv576460752303357826 64) strlen_83_64)))
 (let (($x69 (= (_ bv0 8) args_1_8)))
 (let ((?x46 (ite $x69 (_ bv576460752303357826 64) (_ bv576460752303357827 64))))
 (= ?x46 ?x101)))))
(assert
 (let (($x104 (bvule (_ bv2 64) strlen_83_64)))
 (let (($x48 (= (_ bv2 64) strlen_83_64)))
 (let (($x122 (or $x48 $x104)))
 (let (($x123 (not $x122)))
 (let (($x57 (= (_ bv45 8) args_1_8)))
 (let (($x121 (not $x57)))
 (or $x121 $x123))))))))
(assert
 (= (_ bv1 32) strncmp_ret_84_32))
(assert
 (= (_ bv1 32) strncmp_ret_86_32))
(assert
 true)
(assert
 (let ((?x1236 ((_ extract 3 0) filesize_file_0_/proc/self/loginuid_88_64)))
 (let (($x1210 (bvsge (_ bv0 64) filesize_file_0_/proc/self/loginuid_88_64)))
 (let ((?x99 (ite $x1210 (_ bv0 4) ?x1236)))
 (let (($x1110 (bvule ?x99 (_ bv12 4))))
 (let (($x119703 (not $x1110)))
 (let ((?x1214 ((_ extract 63 63) filesize_file_0_/proc/self/loginuid_88_64)))
 (let (($x116245 (= (_ bv1 1) ?x1214)))
 (let (($x119835 (not $x116245)))
 (let ((?x1229 ((_ extract 63 4) filesize_file_0_/proc/self/loginuid_88_64)))
 (let (($x523 (= (_ bv0 60) ?x1229)))
 (let (($x516 (or $x1210 $x523)))
 (let (($x119942 (not $x516)))
 (let (($x119586 (or $x119942 $x119835 $x1210 $x119703)))
 (let (($x116912 (not $x119586)))
 (let (($x116860 (= (_ bv0 64) filesize_file_0_/proc/self/loginuid_88_64)))
 (let (($x117248 (or $x116860 $x1210)))
 (let (($x119482 (not $x117248)))
 (let (($x47155 (or $x119942 $x119703 $x119482)))
 (let (($x118344 (not $x47155)))
 (or $x118344 $x116912)))))))))))))))))))))
(assert
 (let (($x1210 (bvsge (_ bv0 64) filesize_file_0_/proc/self/loginuid_88_64)))
 (let ((?x1217 (ite $x1210 (_ bv0 64) filesize_file_0_/proc/self/loginuid_88_64)))
 (let ((?x1236 ((_ extract 3 0) filesize_file_0_/proc/self/loginuid_88_64)))
 (let ((?x99 (ite $x1210 (_ bv0 4) ?x1236)))
 (let (($x1110 (bvule ?x99 (_ bv12 4))))
 (let ((?x1229 ((_ extract 63 4) filesize_file_0_/proc/self/loginuid_88_64)))
 (let (($x523 (= (_ bv0 60) ?x1229)))
 (let (($x516 (or $x1210 $x523)))
 (let (($x975 (and $x516 $x1110)))
 (let ((?x1169 (ite $x975 ?x1217 (_ bv12 64))))
 (bvule ?x1169 (_ bv18446744073709547520 64)))))))))))))
(assert
 (let ((?x48102 ((_ extract 31 31) syscall_stub_ioctl_94_32)))
 (= (_ bv0 1) ?x48102)))
(assert
 (let (($x3051 (= (_ bv0 32) syscall_stub_ioctl_94_32)))
 (not $x3051)))
(assert
 (let ((?x52872 ((_ extract 31 0) syscall_stub_newfstatat_119_64)))
 (bvule ?x52872 (_ bv4294963200 32))))
(assert
 (= (_ bv13 64) syscall_stub_readlink_158_64))
(assert
 (let ((?x441255 (bvadd (_ bv576460752303354917 64) strlen_842_64)))
 (let ((?x119659 ((_ extract 63 56) mem_7fffffffffef420_168_64)))
 (let (($x441241 (= (_ bv0 8) ?x119659)))
 (let ((?x114108 (ite $x441241 (_ bv576460752303354919 64) (_ bv576460752303354920 64))))
 (let ((?x113788 ((_ extract 55 48) mem_7fffffffffef420_168_64)))
 (let (($x441239 (= (_ bv0 8) ?x113788)))
 (let ((?x40247 (ite $x441239 (_ bv576460752303354918 64) ?x114108)))
 (let ((?x68316 ((_ extract 47 40) mem_7fffffffffef420_168_64)))
 (let (($x441237 (= (_ bv0 8) ?x68316)))
 (let ((?x3236 (ite $x441237 (_ bv576460752303354917 64) ?x40247)))
 (= ?x3236 ?x441255))))))))))))
(assert
 (let ((?x46334 ((_ extract 7 0) mem_7fffffffffef420_168_64)))
 (= (_ bv47 8) ?x46334)))
(assert
 (let ((?x441444 (bvadd (_ bv1 64) strlen_842_64)))
 (let ((?x442010 ((_ extract 63 3) ?x441444)))
 (= (_ bv0 61) ?x442010))))
(assert
 (let ((?x441926 ((_ extract 2 0) strlen_842_64)))
 (let ((?x441872 (bvadd (_ bv1 3) ?x441926)))
 (bvule ?x441872 (_ bv4 3)))))
(assert
 (let ((?x441444 (bvadd (_ bv1 64) strlen_842_64)))
 (let (($x441412 (bvule (_ bv31 64) strlen_842_64)))
 (let (($x441420 (bvule strlen_842_64 (_ bv18446744073709551614 64))))
 (let (($x441918 (and $x441420 $x441412)))
 (let ((?x442099 (ite $x441918 (_ bv32 64) ?x441444)))
 (bvule (_ bv1 64) ?x442099)))))))
(assert
 (let (($x441412 (bvule (_ bv31 64) strlen_842_64)))
 (let (($x441584 (not $x441412)))
 (let (($x441420 (bvule strlen_842_64 (_ bv18446744073709551614 64))))
 (let (($x441580 (not $x441420)))
 (or $x441580 $x441584))))))
(assert
 (let ((?x118302 ((_ extract 31 0) syscall_stub_newfstatat_187_64)))
 (bvule ?x118302 (_ bv4294963200 32))))
(assert
 (= mem_7fffffffffeefa8_273_64 mem_7fffffffffef038_272_64))
(assert
 (= mem_7fffffffffef030_294_64 mem_7fffffffffeefa0_293_64))
(assert
 (let ((?x276820 ((_ extract 15 12) mem_7fffffffffef048_341_32)))
 (= (_ bv2 4) ?x276820)))
(assert
 (= mem_7fffffffffef058_391_64 mem_7fffffffffeefc8_390_64))
(assert
 (= (_ bv4294967295 32) access_2116_32))
(assert
 (= (_ bv4294967295 32) access_3240_32))
(assert
 (let ((?x1728525 (bvadd (_ bv44 64) strlen_8496_64)))
 (let ((?x1727704 ((_ extract 15 8) mem_2c_8495_264)))
 (let (($x1727905 (= (_ bv0 8) ?x1727704)))
 (let ((?x1727825 (ite $x1727905 (_ bv75 64) (_ bv0 64))))
 (let ((?x1727681 ((_ extract 23 16) mem_2c_8495_264)))
 (let (($x1728122 (= (_ bv0 8) ?x1727681)))
 (let ((?x1728264 (ite $x1728122 (_ bv74 64) ?x1727825)))
 (let ((?x1728441 ((_ extract 31 24) mem_2c_8495_264)))
 (let (($x1728020 (= (_ bv0 8) ?x1728441)))
 (let ((?x1727228 (ite $x1728020 (_ bv73 64) ?x1728264)))
 (let ((?x1728504 ((_ extract 39 32) mem_2c_8495_264)))
 (let (($x1728502 (= (_ bv0 8) ?x1728504)))
 (let ((?x1728315 (ite $x1728502 (_ bv72 64) ?x1727228)))
 (let ((?x1728589 ((_ extract 47 40) mem_2c_8495_264)))
 (let (($x1728183 (= (_ bv0 8) ?x1728589)))
 (let ((?x1727339 (ite $x1728183 (_ bv71 64) ?x1728315)))
 (let ((?x1727876 ((_ extract 55 48) mem_2c_8495_264)))
 (let (($x1728514 (= (_ bv0 8) ?x1727876)))
 (let ((?x1727874 (ite $x1728514 (_ bv70 64) ?x1727339)))
 (let ((?x1728316 ((_ extract 63 56) mem_2c_8495_264)))
 (let (($x1727692 (= (_ bv0 8) ?x1728316)))
 (let ((?x1728460 (ite $x1727692 (_ bv69 64) ?x1727874)))
 (let ((?x1727922 ((_ extract 71 64) mem_2c_8495_264)))
 (let (($x1728455 (= (_ bv0 8) ?x1727922)))
 (let ((?x1728008 (ite $x1728455 (_ bv68 64) ?x1728460)))
 (let ((?x1727759 ((_ extract 79 72) mem_2c_8495_264)))
 (let (($x1728060 (= (_ bv0 8) ?x1727759)))
 (let ((?x1728585 (ite $x1728060 (_ bv67 64) ?x1728008)))
 (let ((?x1728444 ((_ extract 87 80) mem_2c_8495_264)))
 (let (($x1728086 (= (_ bv0 8) ?x1728444)))
 (let ((?x1727738 (ite $x1728086 (_ bv66 64) ?x1728585)))
 (let ((?x1727848 ((_ extract 95 88) mem_2c_8495_264)))
 (let (($x1728282 (= (_ bv0 8) ?x1727848)))
 (let ((?x1728435 (ite $x1728282 (_ bv65 64) ?x1727738)))
 (let ((?x1728148 ((_ extract 103 96) mem_2c_8495_264)))
 (let (($x1728578 (= (_ bv0 8) ?x1728148)))
 (let ((?x1728482 (ite $x1728578 (_ bv64 64) ?x1728435)))
 (let ((?x1728180 ((_ extract 111 104) mem_2c_8495_264)))
 (let (($x1728491 (= (_ bv0 8) ?x1728180)))
 (let ((?x1728037 (ite $x1728491 (_ bv63 64) ?x1728482)))
 (let ((?x1727736 ((_ extract 119 112) mem_2c_8495_264)))
 (let (($x1727907 (= (_ bv0 8) ?x1727736)))
 (let ((?x1728100 (ite $x1727907 (_ bv62 64) ?x1728037)))
 (let ((?x1728567 ((_ extract 127 120) mem_2c_8495_264)))
 (let (($x1728261 (= (_ bv0 8) ?x1728567)))
 (let ((?x1726773 (ite $x1728261 (_ bv61 64) ?x1728100)))
 (let ((?x1727684 ((_ extract 135 128) mem_2c_8495_264)))
 (let (($x1728240 (= (_ bv0 8) ?x1727684)))
 (let ((?x1728519 (ite $x1728240 (_ bv60 64) ?x1726773)))
 (let ((?x1727952 ((_ extract 143 136) mem_2c_8495_264)))
 (let (($x1727894 (= (_ bv0 8) ?x1727952)))
 (let ((?x1728163 (ite $x1727894 (_ bv59 64) ?x1728519)))
 (let ((?x1728560 ((_ extract 151 144) mem_2c_8495_264)))
 (let (($x1728554 (= (_ bv0 8) ?x1728560)))
 (let ((?x1727789 (ite $x1728554 (_ bv58 64) ?x1728163)))
 (let ((?x1728298 ((_ extract 159 152) mem_2c_8495_264)))
 (let (($x1727978 (= (_ bv0 8) ?x1728298)))
 (let ((?x1728521 (ite $x1727978 (_ bv57 64) ?x1727789)))
 (let ((?x1727867 ((_ extract 167 160) mem_2c_8495_264)))
 (let (($x1728487 (= (_ bv0 8) ?x1727867)))
 (let ((?x1728176 (ite $x1728487 (_ bv56 64) ?x1728521)))
 (let ((?x1727823 ((_ extract 175 168) mem_2c_8495_264)))
 (let (($x1728267 (= (_ bv0 8) ?x1727823)))
 (let ((?x1728563 (ite $x1728267 (_ bv55 64) ?x1728176)))
 (let ((?x1728293 ((_ extract 183 176) mem_2c_8495_264)))
 (let (($x1728103 (= (_ bv0 8) ?x1728293)))
 (let ((?x1728472 (ite $x1728103 (_ bv54 64) ?x1728563)))
 (let ((?x1728053 ((_ extract 191 184) mem_2c_8495_264)))
 (let (($x1727664 (= (_ bv0 8) ?x1728053)))
 (let ((?x1728430 (ite $x1727664 (_ bv53 64) ?x1728472)))
 (let ((?x1728031 ((_ extract 199 192) mem_2c_8495_264)))
 (let (($x1728571 (= (_ bv0 8) ?x1728031)))
 (let ((?x1728076 (ite $x1728571 (_ bv52 64) ?x1728430)))
 (let ((?x1728498 ((_ extract 207 200) mem_2c_8495_264)))
 (let (($x1727932 (= (_ bv0 8) ?x1728498)))
 (let ((?x1727955 (ite $x1727932 (_ bv51 64) ?x1728076)))
 (let ((?x1727881 ((_ extract 215 208) mem_2c_8495_264)))
 (let (($x1727244 (= (_ bv0 8) ?x1727881)))
 (let ((?x1727666 (ite $x1727244 (_ bv50 64) ?x1727955)))
 (let ((?x1727809 ((_ extract 223 216) mem_2c_8495_264)))
 (let (($x1727769 (= (_ bv0 8) ?x1727809)))
 (let ((?x1727709 (ite $x1727769 (_ bv49 64) ?x1727666)))
 (let ((?x1728277 ((_ extract 231 224) mem_2c_8495_264)))
 (let (($x1727678 (= (_ bv0 8) ?x1728277)))
 (let ((?x1728429 (ite $x1727678 (_ bv48 64) ?x1727709)))
 (let ((?x1727751 ((_ extract 239 232) mem_2c_8495_264)))
 (let (($x1728085 (= (_ bv0 8) ?x1727751)))
 (let ((?x1727818 (ite $x1728085 (_ bv47 64) ?x1728429)))
 (let ((?x1727708 ((_ extract 247 240) mem_2c_8495_264)))
 (let (($x1728566 (= (_ bv0 8) ?x1727708)))
 (let ((?x1728549 (ite $x1728566 (_ bv46 64) ?x1727818)))
 (let ((?x1727849 ((_ extract 255 248) mem_2c_8495_264)))
 (let (($x1728066 (= (_ bv0 8) ?x1727849)))
 (let ((?x1728452 (ite $x1728066 (_ bv45 64) ?x1728549)))
 (let ((?x1728570 ((_ extract 263 256) mem_2c_8495_264)))
 (let (($x1728229 (= (_ bv0 8) ?x1728570)))
 (let ((?x1727998 (ite $x1728229 (_ bv44 64) ?x1728452)))
 (= ?x1727998 ?x1728525)))))))))))))))))))))))))))))))))))))))))))))))))))))))))))))))))))))))))))))))))))))))))))))))))))
(assert
 (let ((?x1749570 ((_ extract 63 5) strlen_8496_64)))
 (= (_ bv0 59) ?x1749570)))
(maximize args_1_8)
(maximize strlen_83_64)
(maximize mem_7fffffffffeefa8_273_64)
(minimize syscall_stub_newfstatat_119_64)
(maximize syscall_stub_readlink_158_64)
(maximize mem_7fffffffffeefa0_293_64)
(maximize strlen_85_64)
(minimize syscall_stub_newfstatat_187_64)
(maximize mem_7fffffffffef420_168_64)
(minimize mem_2c_8495_264)
(maximize syscall_stub_newfstatat_187_64)
(maximize mem_7fffffffffef058_391_64)
(minimize strlen_85_64)
(minimize syscall_stub_ioctl_94_32)
(minimize mem_7fffffffffef058_391_64)
(minimize filesize_file_0_/proc/self/loginuid_88_64)
(maximize syscall_stub_ioctl_94_32)
(maximize filesize_file_0_/proc/self/loginuid_88_64)
(maximize mem_7fffffffffef048_341_32)
(minimize mem_7fffffffffef030_294_64)
(minimize mem_7fffffffffeefa8_273_64)
(minimize access_3240_32)
(minimize access_2116_32)
(minimize strncmp_ret_86_32)
(maximize strncmp_ret_86_32)
(minimize mem_7fffffffffeefc8_390_64)
(minimize mem_7fffffffffeefa0_293_64)
(minimize args_1_8)
(minimize mem_7fffffffffef048_341_32)
(maximize mem_7fffffffffef030_294_64)
(maximize strlen_842_64)
(minimize strncmp_ret_84_32)
(maximize access_3240_32)
(minimize syscall_stub_readlink_158_64)
(maximize strncmp_ret_84_32)
(minimize mem_7fffffffffef420_168_64)
(maximize mem_7fffffffffef038_272_64)
(maximize access_2116_32)
(check-sat)
(get-objectives)
